NAME: ./prFile/tspFile/tsp_file55.tsp
COMMENT: TSP file generated by Python
TYPE: TSP
DIMENSION: 40
EDGE_WEIGHT_TYPE: EUC_2D
NODE_COORD_SECTION
1 99 84
2 74 96
3 17 48
4 86 22
5 15 44
6 4 98
7 34 5
8 40 70
9 73 22
10 14 23
11 57 20
12 55 68
13 57 63
14 82 12
15 14 97
16 15 29
17 9 20
18 77 94
19 34 73
20 13 91
21 39 25
22 86 77
23 52 3
24 50 17
25 6 63
26 91 46
27 83 81
28 40 93
29 5 91
30 76 86
31 70 20
32 3 59
33 22 6
34 86 33
35 50 21
36 37 62
37 4 54
38 36 27
39 64 78
40 16 23
EOF
